(declare-fun var0 () String)
(assert (RegexIn var0 (RegexConcat (RegexUnion (RegexPlus (Str2Reg "ii")) (RegexStar (Str2Reg "jjj"))) (RegexConcat (RegexStar (RegexPlus (Str2Reg "hh"))) (RegexConcat (RegexUnion (RegexUnion (Str2Reg "eee") (Str2Reg "ff")) (RegexPlus (Str2Reg "ggg"))) (RegexConcat (RegexUnion (RegexStar (Str2Reg "cc")) (RegexStar (Str2Reg "d"))) (RegexConcat (RegexPlus (RegexPlus (Str2Reg "bbb"))) (RegexConcat (RegexStar (RegexPlus (Str2Reg "aa"))) (RegexConcat (RegexStar (RegexUnion (Str2Reg "88") (Str2Reg "999"))) (RegexConcat (RegexStar (RegexUnion (Str2Reg "666") (Str2Reg "77"))) (RegexConcat (RegexUnion (RegexPlus (Str2Reg "333")) (RegexUnion (Str2Reg "44") (Str2Reg "555"))) (RegexUnion (RegexUnion (Str2Reg "0") (Str2Reg "111")) (RegexStar (Str2Reg "22"))))))))))))))
(assert (RegexIn var0 (RegexConcat (RegexUnion (RegexStar (Str2Reg "ggg")) (RegexUnion (Str2Reg "hh") (Str2Reg "i"))) (RegexConcat (RegexUnion (RegexPlus (Str2Reg "e")) (RegexStar (Str2Reg "fff"))) (RegexConcat (RegexStar (RegexPlus (Str2Reg "ddd"))) (RegexConcat (RegexUnion (RegexStar (Str2Reg "bb")) (RegexPlus (Str2Reg "c"))) (RegexConcat (RegexStar (RegexStar (Str2Reg "aa"))) (RegexConcat (RegexPlus (RegexUnion (Str2Reg "88") (Str2Reg "99"))) (RegexConcat (RegexUnion (RegexUnion (Str2Reg "55") (Str2Reg "66")) (RegexStar (Str2Reg "777"))) (RegexConcat (RegexPlus (RegexPlus (Str2Reg "44"))) (RegexConcat (RegexStar (RegexStar (Str2Reg "33"))) (RegexUnion (RegexUnion (Str2Reg "0") (Str2Reg "1")) (RegexPlus (Str2Reg "222"))))))))))))))
(assert (RegexIn var0 (RegexConcat (RegexStar (RegexUnion (Str2Reg "ii") (Str2Reg "jjj"))) (RegexConcat (RegexUnion (RegexPlus (Str2Reg "f")) (RegexUnion (Str2Reg "ggg") (Str2Reg "hhh"))) (RegexConcat (RegexPlus (RegexUnion (Str2Reg "ddd") (Str2Reg "eee"))) (RegexConcat (RegexUnion (RegexUnion (Str2Reg "a") (Str2Reg "bbb")) (RegexPlus (Str2Reg "cc"))) (RegexConcat (RegexStar (RegexPlus (Str2Reg "9"))) (RegexConcat (RegexPlus (RegexUnion (Str2Reg "777") (Str2Reg "88"))) (RegexConcat (RegexUnion (RegexPlus (Str2Reg "5")) (RegexStar (Str2Reg "6"))) (RegexConcat (RegexStar (RegexPlus (Str2Reg "444"))) (RegexConcat (RegexPlus (RegexUnion (Str2Reg "2") (Str2Reg "33"))) (RegexUnion (RegexStar (Str2Reg "000")) (RegexStar (Str2Reg "111"))))))))))))))
(assert (RegexIn var0 (RegexConcat (RegexPlus (RegexUnion (Str2Reg "jj") (Str2Reg "k"))) (RegexConcat (RegexPlus (RegexUnion (Str2Reg "h") (Str2Reg "i"))) (RegexConcat (RegexStar (RegexPlus (Str2Reg "g"))) (RegexConcat (RegexPlus (RegexStar (Str2Reg "ff"))) (RegexConcat (RegexPlus (RegexPlus (Str2Reg "eee"))) (RegexConcat (RegexPlus (RegexStar (Str2Reg "dd"))) (RegexConcat (RegexUnion (RegexUnion (Str2Reg "99") (Str2Reg "aa")) (RegexUnion (Str2Reg "bbb") (Str2Reg "ccc"))) (RegexConcat (RegexUnion (RegexUnion (Str2Reg "666") (Str2Reg "7")) (RegexPlus (Str2Reg "8"))) (RegexConcat (RegexUnion (RegexUnion (Str2Reg "222") (Str2Reg "33")) (RegexUnion (Str2Reg "4") (Str2Reg "555"))) (RegexUnion (RegexStar (Str2Reg "0")) (RegexPlus (Str2Reg "111"))))))))))))))
(assert (RegexIn var0 (RegexConcat (RegexStar (RegexUnion (Str2Reg "dd") (Str2Reg "e"))) (RegexConcat (RegexStar (RegexPlus (Str2Reg "c"))) (RegexConcat (RegexUnion (RegexStar (Str2Reg "a")) (RegexStar (Str2Reg "bb"))) (RegexConcat (RegexStar (RegexPlus (Str2Reg "99"))) (RegexConcat (RegexStar (RegexUnion (Str2Reg "777") (Str2Reg "888"))) (RegexConcat (RegexUnion (RegexStar (Str2Reg "555")) (RegexPlus (Str2Reg "666"))) (RegexConcat (RegexStar (RegexPlus (Str2Reg "44"))) (RegexConcat (RegexPlus (RegexStar (Str2Reg "3"))) (RegexConcat (RegexStar (RegexUnion (Str2Reg "111") (Str2Reg "2"))) (RegexPlus (RegexPlus (Str2Reg "000"))))))))))))))
(assert (RegexIn var0 (RegexConcat (RegexStar (RegexStar (Str2Reg "ggg"))) (RegexConcat (RegexUnion (RegexStar (Str2Reg "eee")) (RegexPlus (Str2Reg "fff"))) (RegexConcat (RegexStar (RegexUnion (Str2Reg "cc") (Str2Reg "ddd"))) (RegexConcat (RegexUnion (RegexPlus (Str2Reg "99")) (RegexUnion (Str2Reg "aaa") (Str2Reg "bbb"))) (RegexConcat (RegexUnion (RegexStar (Str2Reg "7")) (RegexPlus (Str2Reg "88"))) (RegexConcat (RegexStar (RegexPlus (Str2Reg "6"))) (RegexConcat (RegexPlus (RegexStar (Str2Reg "55"))) (RegexConcat (RegexPlus (RegexPlus (Str2Reg "4"))) (RegexConcat (RegexStar (RegexUnion (Str2Reg "22") (Str2Reg "33"))) (RegexUnion (RegexPlus (Str2Reg "0")) (RegexStar (Str2Reg "11"))))))))))))))
(assert (RegexIn var0 (RegexConcat (RegexStar (RegexPlus (Str2Reg "ccc"))) (RegexConcat (RegexStar (RegexPlus (Str2Reg "b"))) (RegexConcat (RegexPlus (RegexUnion (Str2Reg "99") (Str2Reg "a"))) (RegexConcat (RegexPlus (RegexPlus (Str2Reg "8"))) (RegexConcat (RegexPlus (RegexStar (Str2Reg "77"))) (RegexConcat (RegexPlus (RegexPlus (Str2Reg "666"))) (RegexConcat (RegexPlus (RegexStar (Str2Reg "555"))) (RegexConcat (RegexPlus (RegexUnion (Str2Reg "33") (Str2Reg "4"))) (RegexConcat (RegexUnion (RegexPlus (Str2Reg "11")) (RegexPlus (Str2Reg "222"))) (RegexStar (RegexStar (Str2Reg "0"))))))))))))))
(assert (RegexIn var0 (RegexConcat (RegexPlus (RegexPlus (Str2Reg "g"))) (RegexConcat (RegexUnion (RegexStar (Str2Reg "eee")) (RegexStar (Str2Reg "f"))) (RegexConcat (RegexPlus (RegexStar (Str2Reg "dd"))) (RegexConcat (RegexUnion (RegexPlus (Str2Reg "b")) (RegexPlus (Str2Reg "ccc"))) (RegexConcat (RegexPlus (RegexUnion (Str2Reg "999") (Str2Reg "aaa"))) (RegexConcat (RegexPlus (RegexStar (Str2Reg "8"))) (RegexConcat (RegexStar (RegexUnion (Str2Reg "66") (Str2Reg "7"))) (RegexConcat (RegexUnion (RegexStar (Str2Reg "4")) (RegexStar (Str2Reg "55"))) (RegexConcat (RegexUnion (RegexUnion (Str2Reg "11") (Str2Reg "22")) (RegexStar (Str2Reg "33"))) (RegexPlus (RegexPlus (Str2Reg "000"))))))))))))))
(assert (RegexIn var0 (RegexConcat (RegexStar (RegexStar (Str2Reg "ee"))) (RegexConcat (RegexUnion (RegexStar (Str2Reg "ccc")) (RegexPlus (Str2Reg "dd"))) (RegexConcat (RegexStar (RegexUnion (Str2Reg "aaa") (Str2Reg "bbb"))) (RegexConcat (RegexPlus (RegexStar (Str2Reg "999"))) (RegexConcat (RegexUnion (RegexPlus (Str2Reg "77")) (RegexStar (Str2Reg "8"))) (RegexConcat (RegexPlus (RegexStar (Str2Reg "6"))) (RegexConcat (RegexStar (RegexStar (Str2Reg "55"))) (RegexConcat (RegexStar (RegexPlus (Str2Reg "444"))) (RegexConcat (RegexUnion (RegexStar (Str2Reg "2")) (RegexStar (Str2Reg "33"))) (RegexUnion (RegexPlus (Str2Reg "00")) (RegexStar (Str2Reg "1"))))))))))))))
(assert (RegexIn var0 (RegexConcat (RegexStar (RegexPlus (Str2Reg "fff"))) (RegexConcat (RegexUnion (RegexUnion (Str2Reg "c") (Str2Reg "ddd")) (RegexStar (Str2Reg "e"))) (RegexConcat (RegexStar (RegexPlus (Str2Reg "bbb"))) (RegexConcat (RegexStar (RegexStar (Str2Reg "aaa"))) (RegexConcat (RegexUnion (RegexStar (Str2Reg "8")) (RegexStar (Str2Reg "999"))) (RegexConcat (RegexStar (RegexStar (Str2Reg "7"))) (RegexConcat (RegexStar (RegexStar (Str2Reg "666"))) (RegexConcat (RegexStar (RegexStar (Str2Reg "5"))) (RegexConcat (RegexUnion (RegexUnion (Str2Reg "2") (Str2Reg "33")) (RegexStar (Str2Reg "44"))) (RegexPlus (RegexUnion (Str2Reg "00") (Str2Reg "111"))))))))))))))
(assert (RegexIn var0 (RegexConcat (RegexUnion (RegexPlus (Str2Reg "dd")) (RegexStar (Str2Reg "e"))) (RegexConcat (RegexUnion (RegexStar (Str2Reg "b")) (RegexStar (Str2Reg "c"))) (RegexConcat (RegexPlus (RegexStar (Str2Reg "aa"))) (RegexConcat (RegexPlus (RegexPlus (Str2Reg "99"))) (RegexConcat (RegexStar (RegexUnion (Str2Reg "777") (Str2Reg "888"))) (RegexConcat (RegexPlus (RegexStar (Str2Reg "66"))) (RegexConcat (RegexStar (RegexPlus (Str2Reg "55"))) (RegexConcat (RegexPlus (RegexUnion (Str2Reg "33") (Str2Reg "4"))) (RegexConcat (RegexPlus (RegexPlus (Str2Reg "222"))) (RegexUnion (RegexStar (Str2Reg "0")) (RegexPlus (Str2Reg "111"))))))))))))))
(assert (RegexIn var0 (RegexConcat (RegexUnion (RegexUnion (Str2Reg "ee") (Str2Reg "fff")) (RegexStar (Str2Reg "ggg"))) (RegexConcat (RegexPlus (RegexPlus (Str2Reg "dd"))) (RegexConcat (RegexStar (RegexStar (Str2Reg "cc"))) (RegexConcat (RegexUnion (RegexUnion (Str2Reg "99") (Str2Reg "a")) (RegexPlus (Str2Reg "bb"))) (RegexConcat (RegexPlus (RegexUnion (Str2Reg "7") (Str2Reg "888"))) (RegexConcat (RegexStar (RegexPlus (Str2Reg "66"))) (RegexConcat (RegexStar (RegexPlus (Str2Reg "5"))) (RegexConcat (RegexPlus (RegexPlus (Str2Reg "444"))) (RegexConcat (RegexPlus (RegexUnion (Str2Reg "22") (Str2Reg "33"))) (RegexStar (RegexUnion (Str2Reg "000") (Str2Reg "11"))))))))))))))
(assert (RegexIn var0 (RegexConcat (RegexPlus (RegexPlus (Str2Reg "gg"))) (RegexConcat (RegexUnion (RegexStar (Str2Reg "e")) (RegexStar (Str2Reg "fff"))) (RegexConcat (RegexPlus (RegexUnion (Str2Reg "ccc") (Str2Reg "dd"))) (RegexConcat (RegexPlus (RegexUnion (Str2Reg "aa") (Str2Reg "bbb"))) (RegexConcat (RegexStar (RegexPlus (Str2Reg "999"))) (RegexConcat (RegexUnion (RegexPlus (Str2Reg "77")) (RegexPlus (Str2Reg "88"))) (RegexConcat (RegexPlus (RegexStar (Str2Reg "666"))) (RegexConcat (RegexStar (RegexPlus (Str2Reg "5"))) (RegexConcat (RegexUnion (RegexUnion (Str2Reg "22") (Str2Reg "333")) (RegexStar (Str2Reg "4"))) (RegexPlus (RegexUnion (Str2Reg "0") (Str2Reg "111"))))))))))))))
(assert (RegexIn var0 (RegexConcat (RegexPlus (RegexStar (Str2Reg "d"))) (RegexConcat (RegexPlus (RegexStar (Str2Reg "cc"))) (RegexConcat (RegexStar (RegexUnion (Str2Reg "aaa") (Str2Reg "bb"))) (RegexConcat (RegexPlus (RegexStar (Str2Reg "9"))) (RegexConcat (RegexPlus (RegexUnion (Str2Reg "7") (Str2Reg "88"))) (RegexConcat (RegexStar (RegexUnion (Str2Reg "55") (Str2Reg "66"))) (RegexConcat (RegexStar (RegexPlus (Str2Reg "444"))) (RegexConcat (RegexUnion (RegexStar (Str2Reg "22")) (RegexPlus (Str2Reg "33"))) (RegexConcat (RegexStar (RegexStar (Str2Reg "11"))) (RegexPlus (RegexStar (Str2Reg "0"))))))))))))))
(assert (RegexIn var0 (RegexConcat (RegexStar (RegexStar (Str2Reg "ff"))) (RegexConcat (RegexPlus (RegexPlus (Str2Reg "eee"))) (RegexConcat (RegexStar (RegexPlus (Str2Reg "dd"))) (RegexConcat (RegexUnion (RegexPlus (Str2Reg "bb")) (RegexStar (Str2Reg "cc"))) (RegexConcat (RegexPlus (RegexStar (Str2Reg "aa"))) (RegexConcat (RegexPlus (RegexPlus (Str2Reg "999"))) (RegexConcat (RegexStar (RegexStar (Str2Reg "88"))) (RegexConcat (RegexUnion (RegexStar (Str2Reg "66")) (RegexStar (Str2Reg "77"))) (RegexConcat (RegexPlus (RegexUnion (Str2Reg "44") (Str2Reg "555"))) (RegexUnion (RegexUnion (Str2Reg "0") (Str2Reg "111")) (RegexUnion (Str2Reg "22") (Str2Reg "3"))))))))))))))
(assert (RegexIn var0 (RegexConcat (RegexPlus (RegexUnion (Str2Reg "i") (Str2Reg "j"))) (RegexConcat (RegexPlus (RegexStar (Str2Reg "hh"))) (RegexConcat (RegexStar (RegexUnion (Str2Reg "f") (Str2Reg "gg"))) (RegexConcat (RegexPlus (RegexStar (Str2Reg "ee"))) (RegexConcat (RegexUnion (RegexPlus (Str2Reg "bb")) (RegexUnion (Str2Reg "ccc") (Str2Reg "ddd"))) (RegexConcat (RegexStar (RegexPlus (Str2Reg "aa"))) (RegexConcat (RegexUnion (RegexUnion (Str2Reg "77") (Str2Reg "8")) (RegexStar (Str2Reg "99"))) (RegexConcat (RegexPlus (RegexPlus (Str2Reg "6"))) (RegexConcat (RegexUnion (RegexUnion (Str2Reg "222") (Str2Reg "333")) (RegexUnion (Str2Reg "44") (Str2Reg "5"))) (RegexPlus (RegexUnion (Str2Reg "00") (Str2Reg "11"))))))))))))))
(assert (RegexIn var0 (RegexConcat (RegexUnion (RegexUnion (Str2Reg "gg") (Str2Reg "hhh")) (RegexPlus (Str2Reg "ii"))) (RegexConcat (RegexStar (RegexStar (Str2Reg "f"))) (RegexConcat (RegexStar (RegexStar (Str2Reg "e"))) (RegexConcat (RegexPlus (RegexUnion (Str2Reg "cc") (Str2Reg "dd"))) (RegexConcat (RegexUnion (RegexPlus (Str2Reg "99")) (RegexUnion (Str2Reg "aaa") (Str2Reg "b"))) (RegexConcat (RegexStar (RegexUnion (Str2Reg "77") (Str2Reg "8"))) (RegexConcat (RegexPlus (RegexStar (Str2Reg "6"))) (RegexConcat (RegexStar (RegexStar (Str2Reg "5"))) (RegexConcat (RegexStar (RegexPlus (Str2Reg "444"))) (RegexUnion (RegexUnion (Str2Reg "0") (Str2Reg "1")) (RegexUnion (Str2Reg "222") (Str2Reg "33"))))))))))))))
(check-sat)